49 42 7
0 1 0
1 2 0
2 3 0
3 4 0
4 5 0
5 6 0
7 8 1
8 9 1
9 10 1
10 11 1
11 12 1
12 13 1
14 15 2
15 16 2
16 17 2
17 18 2
18 19 2
19 20 2
21 22 3
22 23 3
23 24 3
24 25 3
25 26 3
26 27 3
28 29 4
29 30 4
30 31 4
31 32 4
32 33 4
33 34 4
35 36 5
36 37 5
37 38 5
38 39 5
39 40 5
40 41 5
42 43 6
43 44 6
44 45 6
45 46 6
46 47 6
47 48 6
1 0 692
1 1 310
2 2 832 1 832
2 3 630 6 630
2 4 258 1 258
2 5 147 4 147
3 6 255 3 255 5 255
3 0 581 2 581 5 581
2 1 582 6 582
3 2 14 3 14 1 14
2 3 214 5 214
2 4 147 0 147
3 5 753 3 753 0 753
3 6 806 4 806 1 806
1 0 475
1 1 475
3 2 785 3 785 1 785
3 3 578 5 578 4 578
3 4 852 1 852 6 852
2 5 2 6 2
2 6 699 0 699
1 0 23
3 1 196 3 196 2 196
2 2 696 4 696
3 3 214 2 214 0 214
1 4 586
3 5 356 6 356 0 356
1 6 877
3 0 158 1 158 3 158
2 1 325 4 325
3 2 530 0 530 3 530
3 3 785 0 785 1 785
1 4 325
1 5 565
2 6 412 1 412
2 0 796 5 796
2 1 874 4 874
2 2 214 6 214
2 3 236 4 236
2 4 896 0 896
1 5 898
1 6 302
2 0 542 3 542
2 1 205 4 205
2 2 578 5 578
2 3 963 0 963
3 4 325 0 325 3 325
2 5 800 1 800
2 6 120 0 120